Route 1: 0 98 56 72 39 26 70 86 21 1 40 0
Route 2: 0 50 34 68 18 82 19 0
Route 3: 0 99 95 5 62 2 20 31 0
Route 4: 0 58 83 16 85 89 65 12 80 37 15 64 0
Route 5: 0 69 42 22 6 75 47 49 87 0
Route 6: 0 25 60 73 61 28 97 78 0
Route 7: 0 79 88 11 7 38 43 14 53 0
Route 8: 0 55 23 41 96 35 71 4 94 57 33 0
Route 9: 0 17 24 45 84 36 91 54 76 9 30 44 13 0
Route 10: 0 67 77 90 52 27 100 63 81 66 32 0
Route 11: 0 29 3 51 74 93 59 48 46 10 8 92 0
